p cnf 1363 3032
c 12 12 12 8 12 12 12 12 11 14 12 11 13 12 12 12 12 12 12 12 12 12 12 12 12 12 12 12 12 12 12 14 12 14 12 13 12 16 12 12 14 12 9 12 10 14 12 12 11 15 12 8 12 12 11 12 14 12 12 12 12 13 11 16 14 12 11 12 12 12 12 12 8 9 13 8 16 12 16 8 14 10 10 15 12 12 17 15 12 11 12 12 12 11 12 12 15 10 12 16 12 11 11 13 12 8 11 12 12 13 12 12 15 12 12 12 12 12 12 11 11 9 13 12 12 13 9 11 12 12 12 12 12 8 12 12 12 12 12 12 12 12 12 12 12 12 12 12 13 9 12 11 12 11 11 12 12 9 12 12 12 12 12 11 13 10 13 11 12 10 13 12 12 9 10 12 12 15 8 10 12 12 12 12 12 12 12 12 12 12 10 12 9 16 14 16 9 13 7 12 14 10 10 14 11 13 11 11 11 18 8 11 14 16 11 11 12 12 13 14 9 11 10 5 15 11 12 10 12 12 7 12 12 14 12 12 12 12 12 10 11 11 11 12 12 13 11 9 11 11 12 12 12 12 12 12 

1 -2 0
-1 2 0
1 -3 0
-1 3 0
1 -4 0
-1 4 0
-5 -6 -1 0
-7 -8 -1 0
8 6 1 0
7 6 1 0
8 5 1 0
7 5 1 0
-9 10 0
-9 11 0
9 -12 0
-9 13 0
9 -14 0
-9 15 0
-9 16 0
9 -17 0
18 -19 0
-18 19 0
18 -8 0
-18 8 0
20 -21 0
-20 21 0
20 -22 0
-20 22 0
20 -23 0
-20 23 0
-24 -25 -20 0
-26 -27 -20 0
27 25 20 0
26 25 20 0
27 24 20 0
26 24 20 0
28 -29 0
-28 29 0
28 -30 0
-28 30 0
31 -25 0
-31 25 0
31 -32 0
-31 32 0
33 -34 0
-33 34 0
33 -35 0
-33 35 0
33 -36 0
-33 36 0
-37 -38 -33 0
-17 -39 -33 0
39 38 33 0
17 38 33 0
39 37 33 0
17 37 33 0
40 -38 0
-40 38 0
40 -41 0
-40 41 0
42 43 0
44 43 0
35 44 0
-35 -44 0
45 42 0
-45 -42 0
-46 -43 -47 0
-43 -42 -44 0
48 -49 0
50 -51 0
-50 51 0
50 -52 0
-50 52 0
50 -53 0
-50 53 0
49 52 -48 0
-14 -54 -50 0
-55 -56 -50 0
55 54 50 0
55 14 50 0
-57 58 0
57 -59 0
-57 60 0
61 -56 0
-61 56 0
61 -62 0
-61 62 0
-63 -29 -57 0
63 64 57 0
63 65 57 0
56 54 50 0
56 14 50 0
66 -67 0
-66 67 0
66 -68 0
-66 68 0
69 70 0
71 70 0
67 72 0
-67 -72 0
-70 -73 -66 0
74 70 66 0
-70 -69 -71 0
-75 76 0
75 -77 0
-75 78 0
75 -79 0
-75 79 0
80 -81 0
-80 82 0
-77 -80 0
83 84 0
85 84 0
-84 -86 -80 0
77 86 80 0
77 84 80 0
-84 -83 -85 0
9 -87 0
-9 87 0
9 -88 0
-9 88 0
9 -89 0
-9 89 0
-9 90 0
-9 91 0
9 -92 0
9 -93 0
-9 94 0
9 -95 0
-9 96 0
-9 97 0
-9 98 0
9 -99 0
-9 99 0
9 -100 0
-9 101 0
9 -102 0
-9 103 0
9 -104 0
-9 105 0
-9 106 0
9 -98 0
-9 107 0
-9 108 0
9 -86 0
9 -109 0
-9 100 0
9 -101 0
9 -110 0
-9 111 0
9 -112 0
9 -113 0
-9 114 0
9 -115 0
9 -116 0
-9 116 0
9 -117 0
-9 117 0
-9 118 0
9 -119 0
-9 119 0
9 -120 0
-9 14 0
-9 17 0
9 -121 0
9 -97 0
9 -107 0
9 -122 0
-9 122 0
-9 120 0
9 -123 0
-9 124 0
9 -125 0
-9 125 0
9 -126 0
9 -103 0
9 -26 0
9 -71 0
-9 71 0
9 -127 0
-9 127 0
9 -128 0
-9 128 0
9 -129 0
-9 129 0
9 -130 0
-9 130 0
9 -131 0
-9 131 0
9 -132 0
-9 133 0
-9 86 0
9 -134 0
-9 104 0
9 -111 0
9 -135 0
9 -136 0
-9 137 0
-9 138 0
-9 139 0
9 -140 0
-9 132 0
9 -141 0
9 -106 0
9 -142 0
9 -133 0
9 -108 0
9 -90 0
-9 123 0
9 -124 0
9 -143 0
-9 73 0
-9 144 0
-9 141 0
-9 145 0
-9 134 0
9 -10 0
9 -146 0
9 -147 0
-9 148 0
9 -149 0
-9 149 0
-9 150 0
9 -63 0
-9 63 0
9 -151 0
-9 151 0
-9 152 0
9 -153 0
9 -154 0
-9 154 0
9 -155 0
-9 155 0
-9 143 0
9 -156 0
-9 156 0
-9 157 0
-9 158 0
9 -159 0
-9 109 0
9 -91 0
-9 153 0
-9 146 0
-9 160 0
9 -161 0
-9 161 0
9 -73 0
9 -162 0
9 -144 0
9 -96 0
9 -163 0
-9 163 0
-9 102 0
-9 26 0
9 -164 0
-9 164 0
9 -165 0
-9 165 0
9 -166 0
-9 166 0
9 -114 0
9 -167 0
-9 167 0
9 -168 0
-9 168 0
9 -169 0
-9 169 0
9 -170 0
-9 170 0
9 -171 0
-9 171 0
9 -172 0
-9 172 0
9 -11 0
9 -105 0
9 -173 0
-9 173 0
-9 174 0
-9 175 0
9 -176 0
-9 176 0
-9 112 0
-9 177 0
-9 113 0
-9 121 0
9 -178 0
-9 178 0
-9 142 0
9 -145 0
9 -152 0
-9 126 0
-9 93 0
-9 135 0
9 -137 0
9 -150 0
9 -138 0
9 -179 0
-9 12 0
9 -180 0
-9 180 0
9 -181 0
-9 181 0
9 -182 0
-9 182 0
9 -183 0
-9 183 0
9 -184 0
-9 184 0
9 -185 0
-9 159 0
9 -85 0
-9 85 0
9 -186 0
-9 186 0
9 -187 0
-9 187 0
9 -188 0
-9 188 0
9 -13 0
9 -189 0
-9 189 0
9 -190 0
-9 190 0
9 -191 0
-9 191 0
9 -174 0
9 -192 0
-9 193 0
9 -194 0
-9 194 0
9 -195 0
-9 195 0
-9 185 0
9 -196 0
-9 196 0
9 -197 0
-9 197 0
9 -198 0
-9 198 0
9 -199 0
-9 199 0
9 -200 0
-9 200 0
9 -175 0
-9 95 0
9 -160 0
9 -201 0
-9 201 0
9 -202 0
-9 202 0
-9 92 0
9 -203 0
-9 203 0
9 -204 0
-9 204 0
9 -16 0
-9 5 0
-9 115 0
-9 110 0
9 -118 0
9 -94 0
-9 147 0
9 -15 0
9 -148 0
-9 162 0
9 -193 0
-9 136 0
9 -177 0
-9 140 0
9 -158 0
9 -205 0
-9 205 0
9 -206 0
-9 206 0
9 -207 0
-9 207 0
-9 192 0
9 -5 0
9 -157 0
9 -139 0
-9 179 0
205 208 0
-208 -209 -205 0
210 -211 0
-210 211 0
210 -212 0
-210 212 0
210 -213 0
-210 213 0
210 -214 0
215 216 210 0
-215 -216 210 0
-215 216 -210 0
215 -216 -210 0
-217 -211 -218 0
219 -216 0
-219 216 0
219 -220 0
-219 220 0
221 -222 0
-221 222 0
221 -223 0
-221 223 0
-192 -224 -219 0
-225 -223 -219 0
223 224 219 0
225 224 219 0
223 192 219 0
225 192 219 0
226 -215 0
-226 215 0
226 -217 0
-226 217 0
226 -227 0
-226 227 0
-91 -228 -226 0
-229 -230 -226 0
230 228 226 0
229 228 226 0
230 91 226 0
229 91 226 0
231 -232 0
-231 232 0
231 -233 0
-231 233 0
219 -234 0
-219 234 0
234 217 218 0
-234 -211 -218 0
-217 -235 -218 0
-234 -235 -218 0
-217 -236 -218 0
-234 -236 -218 0
236 235 211 218 0
237 -235 0
-237 235 0
237 -238 0
-237 238 0
237 -239 0
-237 239 0
-99 -240 -237 0
-241 -242 -237 0
242 240 237 0
241 240 237 0
242 99 237 0
241 99 237 0
243 -244 0
-243 244 0
243 -245 0
-243 245 0
243 -246 0
-243 246 0
243 -240 0
-243 240 0
247 243 0
-247 -243 0
248 -249 0
-248 249 0
248 -250 0
-248 250 0
248 -247 0
-248 247 0
251 -252 0
-251 252 0
251 -253 0
-251 253 0
251 -254 0
-251 254 0
-255 -256 -251 0
-158 -257 -251 0
257 256 251 0
158 256 251 0
257 255 251 0
158 255 251 0
258 -236 0
-258 236 0
258 -259 0
-258 259 0
258 -260 0
-258 260 0
-148 -261 -258 0
-262 -263 -258 0
263 261 258 0
262 261 258 0
263 148 258 0
262 148 258 0
264 -265 0
-264 265 0
264 -266 0
-264 266 0
264 -267 0
-264 267 0
265 268 0
-265 -268 0
-269 -270 -264 0
-143 -271 -264 0
271 270 264 0
143 270 264 0
271 269 264 0
143 269 264 0
272 -273 0
-272 273 0
272 -271 0
-272 271 0
272 -274 0
-272 274 0
275 272 0
-275 -272 0
276 -277 0
-276 277 0
276 -275 0
-276 275 0
-278 279 0
278 -280 0
-278 280 0
-281 -232 -278 0
-195 -282 -278 0
282 232 278 0
195 232 278 0
282 281 278 0
195 281 278 0
276 -283 0
-276 283 0
276 -284 0
-276 284 0
278 -285 0
-278 285 0
278 -279 0
268 286 0
287 286 0
279 287 0
-279 -287 0
-286 -268 -288 -287 0
289 -290 0
-289 290 0
289 -291 0
-289 291 0
289 -292 0
-289 292 0
289 -293 0
-289 293 0
294 289 0
-294 -289 0
295 -296 0
-295 296 0
295 -297 0
-295 297 0
295 -298 0
-295 298 0
297 299 0
-297 -299 0
-110 -300 -295 0
-301 -302 -295 0
302 300 295 0
301 300 295 0
302 110 295 0
301 110 295 0
303 -304 0
-303 304 0
303 -305 0
-303 305 0
303 -306 0
-303 306 0
-307 -308 -303 0
-118 -292 -303 0
292 308 303 0
118 308 303 0
292 307 303 0
118 307 303 0
309 -310 0
-309 310 0
309 -311 0
-306 -309 0
312 -294 0
-312 294 0
312 -313 0
-312 313 0
312 -314 0
-312 314 0
312 -315 0
-312 315 0
-316 -317 0
-318 -317 0
-319 -317 0
320 -318 0
-320 318 0
321 -322 0
-321 322 0
-323 -324 -321 0
324 147 321 0
323 147 321 0
317 316 318 319 214 0
321 -325 0
-321 325 0
321 -326 0
-321 326 0
327 -328 0
-327 328 0
329 330 0
-329 -330 0
331 329 0
325 331 0
-325 -331 0
326 328 316 0
-326 -328 316 0
-326 328 -316 0
326 -328 -316 0
327 -332 0
-327 332 0
327 -333 0
-327 333 0
332 334 0
-332 -334 0
-166 -335 -327 0
-336 -337 -327 0
337 335 327 0
336 335 327 0
337 166 327 0
336 166 327 0
338 -339 0
-338 339 0
338 -340 0
-338 340 0
341 -337 0
-341 337 0
341 -342 0
-341 342 0
343 -344 0
-343 344 0
343 -345 0
-343 345 0
-346 -343 0
347 -348 0
-347 348 0
347 -349 0
-347 349 0
-347 346 0
347 -350 0
-347 350 0
351 -352 0
-351 352 0
343 -353 0
-343 353 0
346 343 0
347 -346 0
-354 -355 -351 0
-145 -345 -351 0
345 355 351 0
145 355 351 0
345 354 351 0
145 354 351 0
356 -357 0
-356 357 0
356 -358 0
-356 358 0
-356 359 0
-12 -340 -356 0
-360 -361 -356 0
361 340 356 0
360 340 356 0
361 12 356 0
360 12 356 0
362 338 0
-362 -338 0
363 -364 0
-363 364 0
363 -365 0
-363 365 0
363 -366 0
-363 366 0
363 -367 0
-363 367 0
363 -362 0
-363 362 0
368 -369 0
-368 369 0
57 -60 0
-369 -370 0
60 -370 0
369 -371 0
372 -373 0
-372 373 0
-374 372 0
-373 -375 0
-376 -375 0
370 369 -60 0
371 -369 60 0
375 373 376 0
377 -378 0
-377 378 0
377 -379 0
-377 379 0
377 -380 0
-377 380 0
-381 -382 -377 0
-178 -383 -377 0
383 382 377 0
178 382 377 0
383 381 377 0
178 381 377 0
384 -385 0
-384 385 0
384 -386 0
-384 386 0
384 -387 0
-384 387 0
384 -388 0
-384 388 0
389 -263 0
-389 263 0
389 -390 0
-389 390 0
378 -391 0
392 -374 0
-378 -374 0
393 -394 0
-393 394 0
393 -395 0
-393 395 0
393 -383 0
-393 383 0
388 393 0
-388 -393 0
374 -392 378 0
396 -397 0
-396 397 0
396 -398 0
-396 398 0
396 -399 0
-396 399 0
-400 -401 -396 0
-132 -402 -396 0
402 401 396 0
132 401 396 0
402 400 396 0
132 400 396 0
-403 404 0
403 -405 0
-403 405 0
403 -406 0
-403 406 0
406 407 0
-406 -407 0
-408 -409 -403 0
-108 -410 -403 0
410 409 403 0
108 409 403 0
410 408 403 0
108 408 403 0
411 -412 0
-413 -412 0
414 -415 0
-414 415 0
416 -417 0
418 419 0
417 419 0
415 418 0
-415 -418 0
412 -411 413 0
-419 -418 -417 0
-420 -421 0
422 -376 0
-422 376 0
422 -423 0
422 -420 0
-422 420 0
422 -424 0
-422 424 0
-411 -425 0
413 -425 0
-412 422 0
-425 422 0
424 426 0
-424 -426 0
425 411 -413 0
-422 412 425 0
427 -428 0
-427 428 0
427 -429 0
-427 429 0
427 -430 0
-427 430 0
431 -432 0
-404 -432 0
-432 427 0
-433 427 0
430 434 0
-430 -434 0
432 -431 404 0
-427 432 433 0
435 -436 0
-435 436 0
435 -437 0
-435 437 0
435 -438 0
-435 438 0
-439 -435 0
436 440 0
-436 -440 0
-208 -104 -435 0
439 104 435 0
439 208 435 0
-422 423 0
-441 -442 0
-428 -441 0
-379 -441 0
-423 -441 0
-72 -441 0
-252 -443 0
441 434 442 0
441 443 442 0
441 375 442 0
441 428 379 423 72 0
421 -444 0
-421 444 0
-445 -421 0
-429 -421 0
-446 -421 0
372 -446 0
-372 446 0
-392 -391 0
-391 372 0
391 392 -378 0
-372 374 391 0
421 445 429 446 420 0
-447 -448 0
449 -448 0
-449 448 0
449 -450 0
-449 450 0
449 -451 0
-449 451 0
419 449 0
452 449 0
453 449 0
407 453 0
-449 -419 -452 -442 -453 0
75 -78 0
-75 454 0
75 -455 0
-456 -75 0
457 -458 0
-457 458 0
459 460 0
138 460 0
-460 -171 -457 0
455 171 457 0
455 460 457 0
-460 -459 -138 0
461 -462 0
-461 462 0
461 -228 0
-461 228 0
463 461 0
-463 -461 0
464 -465 0
-464 465 0
464 -466 0
-464 466 0
464 -463 0
-464 463 0
-431 -433 0
404 -433 0
403 -404 0
457 -431 0
-457 431 0
457 -467 0
-455 -457 0
464 -468 0
-464 468 0
464 -469 0
-464 469 0
433 431 -404 0
-75 470 0
75 -74 0
-75 74 0
66 -392 0
-66 392 0
-74 -66 0
209 208 0
74 73 66 0
-437 -471 0
253 -471 0
437 -472 0
-253 -472 0
-472 445 0
-471 445 0
471 437 -253 0
472 -437 253 0
-445 472 471 0
-76 -368 0
75 -76 0
-75 77 0
75 -439 0
-75 439 0
-75 473 0
456 75 0
474 475 0
198 475 0
-475 -133 -368 0
76 133 368 0
76 475 368 0
-475 -474 -198 0
75 -476 0
-75 476 0
75 -470 0
75 -454 0
75 -477 0
-75 477 0
-75 455 0
75 -473 0
414 -478 0
-414 478 0
414 -413 0
-414 413 0
479 -480 0
-479 480 0
479 -481 0
-479 481 0
482 479 0
-482 -479 0
-483 -484 -414 0
-107 -481 -414 0
481 484 414 0
107 484 414 0
481 483 414 0
107 483 414 0
-416 417 0
416 -411 0
-416 411 0
416 -485 0
-416 485 0
-477 -416 0
486 487 0
176 487 0
-487 -127 -416 0
477 127 416 0
477 487 416 0
-487 -486 -176 0
488 -489 0
-488 489 0
488 -490 0
-488 490 0
488 -491 0
-488 491 0
492 488 0
-492 -488 0
493 -494 0
-493 494 0
493 -495 0
-493 495 0
493 -492 0
-493 492 0
493 -496 0
-493 496 0
-457 467 0
442 449 0
426 453 0
467 453 0
-440 -443 0
443 252 440 0
-453 -426 -407 -467 0
-375 -443 -434 -442 0
497 -498 0
497 -499 0
497 -500 0
-497 500 0
497 -501 0
-497 501 0
497 -502 0
-497 502 0
-503 497 0
-497 504 503 0
-505 -506 -507 0
-505 -22 -507 0
-508 -22 -507 0
22 506 498 507 0
-509 -510 0
-499 -510 0
-511 -510 0
-512 -510 0
288 286 0
-513 -288 0
-514 -288 0
-501 -288 0
288 513 514 501 0
510 509 499 511 512 0
515 -509 0
-515 509 0
515 -516 0
-515 516 0
515 -514 0
-515 514 0
517 34 515 0
-517 -34 515 0
-517 34 -515 0
517 -34 -515 0
518 -511 0
-518 511 0
518 -519 0
-518 519 0
518 -513 0
-518 513 0
518 -520 0
-518 520 0
521 -522 0
522 23 518 0
-522 -23 518 0
-522 23 -518 0
522 -23 -518 0
-46 -520 -47 0
502 43 520 47 0
523 -524 0
-523 524 0
523 -45 0
-523 45 0
523 -517 0
-523 517 0
-525 -526 -523 0
-93 -527 -523 0
527 526 523 0
93 526 523 0
527 525 523 0
93 525 523 0
421 -528 0
-421 528 0
528 452 0
46 47 0
-507 -46 0
286 529 0
-286 -529 0
-528 -529 -452 0
-528 -47 -452 0
-528 -530 -452 0
-46 -502 -47 0
530 47 529 452 0
531 -532 0
-531 532 0
311 533 0
534 533 0
-309 311 0
306 309 0
535 530 0
-535 -530 0
310 535 0
536 535 0
-532 -536 0
-500 -536 0
-516 -536 0
-519 -536 0
-533 -311 -534 0
-535 -310 -536 -537 0
536 532 500 516 519 0
538 512 0
-538 -512 0
-539 -538 0
531 -539 0
-531 539 0
540 541 0
305 541 0
-533 -541 -538 0
539 541 538 0
539 533 538 0
267 285 531 0
-267 -285 531 0
-267 285 -531 0
267 -285 -531 0
-541 -540 -305 0
-497 498 0
80 -542 0
-80 542 0
-80 81 0
80 -82 0
507 46 0
81 508 0
-81 -508 0
508 505 507 0
-505 -498 -507 0
-508 -498 -507 0
-508 -506 -507 0
521 -543 0
-521 543 0
521 -506 0
-521 506 0
-521 522 0
-544 -545 -521 0
-191 -546 -521 0
546 545 521 0
191 545 521 0
546 544 521 0
191 544 521 0
547 -548 0
-547 548 0
547 -505 0
-547 505 0
547 -549 0
-547 549 0
-550 -551 -547 0
-89 -552 -547 0
552 551 547 0
89 551 547 0
552 550 547 0
89 550 547 0
-497 499 0
-82 -503 0
549 -503 0
82 -504 0
-549 -504 0
-504 497 0
553 -554 0
-553 554 0
555 553 0
-555 -553 0
503 82 -549 0
504 -82 549 0
556 -557 0
-556 557 0
556 -558 0
-556 558 0
556 -559 0
-556 559 0
556 -560 0
-556 560 0
556 -561 0
-556 561 0
556 -562 0
-556 562 0
563 -564 0
-563 564 0
563 -565 0
-563 565 0
563 -566 0
-563 566 0
561 563 0
-561 -563 0
-147 -566 -321 0
324 566 321 0
323 566 321 0
567 28 0
-567 -28 0
568 -569 0
-568 569 0
568 -570 0
-568 570 0
568 -571 0
-568 571 0
568 -572 0
-568 572 0
568 -567 0
-568 567 0
553 -552 0
-553 552 0
553 -573 0
-553 573 0
574 -575 0
-574 575 0
574 -576 0
-574 576 0
574 -577 0
-574 577 0
574 -555 0
-574 555 0
578 -579 0
-578 579 0
578 -580 0
-578 580 0
578 -581 0
-578 581 0
-470 -578 0
582 583 0
10 583 0
579 584 0
-579 -584 0
-583 -98 -578 0
470 98 578 0
470 583 578 0
-583 -582 -10 0
585 -586 0
585 -587 0
588 589 0
587 589 0
590 589 0
591 -588 0
-591 588 0
-592 581 -585 0
592 -581 -585 0
-589 -588 -587 -593 -590 0
594 -595 0
-594 595 0
-594 596 0
594 -597 0
598 594 0
-598 -594 0
599 -600 0
-599 600 0
599 -598 0
-599 598 0
599 -601 0
-599 601 0
602 -603 0
-602 603 0
602 -592 0
-602 592 0
602 -604 0
-602 604 0
594 -596 0
-594 597 0
594 -605 0
-594 605 0
-606 -607 -602 0
-87 -605 -602 0
605 607 602 0
87 607 602 0
605 606 602 0
87 606 602 0
608 609 0
-608 -609 0
-585 586 0
585 -608 0
-585 608 0
585 -610 0
-585 610 0
-585 587 0
585 -611 0
-585 611 0
592 581 585 0
-592 -581 585 0
612 -613 0
-612 613 0
612 -614 0
-612 614 0
615 612 0
610 612 0
616 612 0
617 612 0
618 617 0
-618 -617 0
-612 -615 -610 -616 -617 0
593 589 0
619 -620 0
-619 620 0
619 -615 0
-619 615 0
619 -593 0
-619 593 0
397 621 619 0
-397 -621 619 0
-397 621 -619 0
397 -621 -619 0
622 -623 0
-622 623 0
622 -621 0
-622 621 0
622 -624 0
-622 624 0
-476 -622 0
625 626 0
90 626 0
-626 -142 -622 0
476 142 622 0
476 626 622 0
-626 -625 -90 0
-627 -628 0
-629 630 0
631 629 0
-631 -629 0
632 -633 0
-632 633 0
632 -631 0
-632 631 0
-633 -627 0
-634 -627 0
-635 -627 0
627 633 634 636 635 0
-60 -371 0
-371 632 0
-370 632 0
-636 -627 0
620 636 0
586 636 0
-632 371 370 0
-636 -620 -586 0
637 638 0
-637 -638 0
368 -639 0
-368 639 0
368 -637 0
-368 637 0
57 -58 0
-57 59 0
-65 -64 -57 0
29 64 57 0
29 65 57 0
628 -640 0
-628 640 0
-641 -628 0
-642 -628 0
-609 -642 0
-58 -642 0
-638 -642 0
-603 -641 0
-584 -641 0
641 603 584 0
642 609 58 638 0
628 627 643 641 642 0
629 -616 0
-629 616 0
629 -590 0
-629 590 0
629 -630 0
-644 645 0
644 -646 0
-645 -647 0
648 649 0
-648 -649 0
-650 -647 -618 0
647 645 649 0
-643 -628 0
651 643 0
630 651 0
652 651 0
611 651 0
624 651 0
399 652 0
-399 -652 0
-651 -589 -643 0
-651 -646 -643 0
-651 -653 -643 0
653 646 589 643 0
-651 -630 -652 -611 -624 0
-591 650 0
351 -634 0
-351 634 0
351 -654 0
-351 654 0
-655 656 0
655 -657 0
656 635 0
-656 -635 0
654 657 591 0
-654 -657 591 0
-654 657 -591 0
655 -658 0
-655 658 0
655 -656 0
-655 657 0
-78 -655 0
659 660 0
152 660 0
654 -657 -591 0
-660 -200 -655 0
78 200 655 0
78 660 655 0
-660 -659 -152 0
661 -648 0
-661 648 0
-661 653 0
661 -662 0
-661 662 0
663 661 0
664 -665 0
-664 665 0
664 -666 0
-664 666 0
667 664 0
-667 -664 0
125 668 661 0
-663 -668 -661 0
-663 -125 -661 0
644 -669 0
-644 669 0
644 -670 0
-644 670 0
644 -645 0
-644 646 0
-671 -672 -644 0
-106 -673 -644 0
673 672 644 0
106 672 644 0
673 671 644 0
106 671 644 0
664 -674 0
-664 674 0
664 -675 0
-664 675 0
664 -673 0
-664 673 0
676 -667 0
-676 667 0
676 -677 0
-676 677 0
676 -678 0
-676 678 0
679 -680 0
-679 680 0
679 -681 0
-679 681 0
679 -682 0
-679 682 0
679 -683 0
-679 683 0
679 -684 0
-679 684 0
679 -685 0
-679 685 0
-686 -687 0
-688 -687 0
-689 -687 0
690 -691 0
-690 691 0
690 -692 0
-690 692 0
690 -693 0
-690 693 0
685 690 0
-685 -690 0
687 686 688 689 0
694 -695 0
-694 695 0
694 -686 0
-694 686 0
694 -696 0
-694 696 0
-186 -693 -694 0
-697 -698 -694 0
698 693 694 0
697 693 694 0
698 186 694 0
697 186 694 0
699 -689 0
-699 689 0
699 -700 0
-699 700 0
699 -701 0
-699 701 0
-194 -702 -699 0
-703 -704 -699 0
704 702 699 0
703 702 699 0
704 194 699 0
703 194 699 0
705 -706 0
-705 706 0
705 -704 0
-705 704 0
707 708 0
709 708 0
710 708 0
696 -711 0
-711 707 0
711 700 -696 0
-708 -707 -709 -712 -710 0
713 714 0
715 714 0
716 -717 0
-716 717 0
716 -715 0
-716 715 0
718 -719 0
-718 719 0
718 -713 0
-718 713 0
-714 -713 -715 0
714 -663 0
-714 663 0
714 -456 0
-714 456 0
591 -650 0
650 618 0
-649 -647 0
647 720 618 0
-650 -720 -618 0
-721 722 0
721 -723 0
-721 723 0
721 -724 0
-721 724 0
725 723 726 0
-725 723 -726 0
-121 -727 -721 0
-728 -729 -721 0
729 727 721 0
728 727 721 0
729 121 721 0
728 121 721 0
661 -730 0
-661 730 0
661 -653 0
731 -729 0
-731 729 0
731 -732 0
-731 732 0
-730 -720 0
-733 -720 0
669 733 0
-669 -733 0
720 730 733 0
734 -735 0
-734 735 0
734 -736 0
-734 736 0
737 734 0
-737 -734 0
317 -737 0
-317 737 0
317 -738 0
-317 738 0
-214 -317 0
-210 214 0
721 -722 0
739 -740 0
739 -741 0
-739 741 0
739 -742 0
-739 742 0
-743 -739 0
-330 -739 0
-218 -739 0
-212 -743 0
-722 -743 0
739 743 330 218 0
743 744 745 212 722 0
320 -744 0
-320 744 0
320 -746 0
-320 746 0
-744 -743 0
239 259 320 0
-239 -259 320 0
-239 259 -320 0
239 -259 -320 0
726 -747 0
-726 747 0
726 -319 0
-726 319 0
748 -745 0
748 -725 0
-748 725 0
748 -749 0
-748 749 0
-725 -723 726 0
725 -723 -726 0
-750 408 0
750 -354 0
-750 354 0
-750 550 0
750 -751 0
-750 751 0
750 -360 0
-750 752 0
-750 753 0
750 -225 0
750 -754 0
750 -755 0
750 -606 0
750 -756 0
-750 756 0
750 -757 0
-750 757 0
-750 758 0
750 -753 0
750 -759 0
-750 759 0
750 -760 0
-750 761 0
-750 65 0
750 -762 0
-750 762 0
750 -697 0
-750 763 0
750 -764 0
-750 764 0
-750 765 0
750 -766 0
-750 766 0
750 -525 0
-750 754 0
750 -767 0
-750 768 0
-750 483 0
750 -765 0
750 -769 0
-750 769 0
750 -544 0
-750 7 0
750 -770 0
750 -771 0
-750 771 0
750 -772 0
-750 772 0
750 -255 0
-750 255 0
750 -773 0
-750 360 0
-750 668 0
750 -752 0
-750 323 0
750 -774 0
750 -703 0
-750 703 0
750 -775 0
-750 775 0
750 -768 0
750 -776 0
-750 777 0
750 -778 0
-750 778 0
750 -779 0
-750 779 0
-750 755 0
750 -483 0
-750 780 0
750 -781 0
-750 781 0
-750 782 0
750 -262 0
-750 262 0
-750 225 0
750 -783 0
-750 783 0
750 -65 0
750 -784 0
-750 773 0
-750 671 0
750 -785 0
-750 786 0
750 -787 0
750 -788 0
-750 788 0
750 -24 0
-750 24 0
750 -7 0
750 -281 0
-750 281 0
750 -400 0
-750 400 0
750 -408 0
750 -789 0
-750 789 0
750 -780 0
750 -790 0
750 -791 0
-750 791 0
-750 770 0
-750 728 0
-750 792 0
750 -671 0
-750 776 0
750 -550 0
-750 793 0
750 -229 0
-750 790 0
750 -794 0
-750 794 0
750 -795 0
-750 795 0
750 -37 0
-750 796 0
-750 606 0
750 -797 0
750 -798 0
-750 798 0
750 -307 0
-750 307 0
-750 799 0
750 -269 0
-750 269 0
-750 787 0
750 -800 0
750 -761 0
-750 797 0
-750 697 0
-750 229 0
750 -799 0
750 -668 0
750 -801 0
-750 801 0
-750 544 0
750 -782 0
750 -792 0
750 -802 0
-750 802 0
750 -803 0
-750 803 0
-750 525 0
750 -758 0
750 -804 0
-750 804 0
750 -805 0
750 -806 0
-750 806 0
750 -796 0
-750 767 0
-750 784 0
-750 785 0
750 -807 0
-750 807 0
750 -808 0
750 -777 0
750 -809 0
750 -763 0
-750 810 0
750 -323 0
-750 805 0
-750 811 0
-750 760 0
750 -381 0
750 -812 0
-750 812 0
750 -241 0
-750 241 0
-750 808 0
750 -793 0
-750 809 0
-750 800 0
750 -811 0
-750 774 0
750 -728 0
-750 381 0
750 -301 0
750 -810 0
750 -813 0
-750 813 0
750 -814 0
-750 814 0
750 -336 0
-750 336 0
-750 37 0
167 750 0
-167 -750 0
815 -816 0
-815 816 0
815 -817 0
-815 817 0
815 -818 0
-815 818 0
-199 -819 -815 0
-808 -820 -815 0
820 819 815 0
808 819 815 0
820 199 815 0
808 199 815 0
-750 301 0
750 -821 0
-750 821 0
750 -822 0
-750 822 0
750 -55 0
-750 55 0
750 -786 0
750 -823 0
-750 823 0
750 -824 0
-750 824 0
825 -826 0
-825 826 0
825 -827 0
-825 827 0
825 -828 0
-825 828 0
-101 -829 -825 0
-776 -830 -825 0
830 829 825 0
776 829 825 0
830 101 825 0
776 101 825 0
831 832 0
-833 -834 0
835 -836 0
-835 836 0
835 -833 0
-835 833 0
837 831 0
-837 -831 0
838 -837 0
-838 837 0
-828 3 -835 0
834 839 833 840 841 0
842 -843 0
-842 843 0
842 -844 0
-842 844 0
842 -845 0
-842 845 0
-11 -846 -842 0
-793 -847 -842 0
847 846 842 0
793 846 842 0
847 11 842 0
793 11 842 0
848 845 849 0
850 -851 0
-850 851 0
850 -852 0
-850 852 0
850 -846 0
-850 846 0
853 850 0
-853 -850 0
854 -853 0
855 -856 0
-855 856 0
857 855 0
-857 -855 0
858 -859 0
-858 859 0
858 -860 0
-858 860 0
858 -861 0
-858 861 0
858 -857 0
-858 857 0
855 -862 0
-855 862 0
855 -829 0
-855 829 0
863 329 0
334 329 0
-746 -863 0
-747 -863 0
-213 -863 0
-329 -331 -863 -334 0
863 746 747 213 0
864 -534 0
-864 534 0
864 -865 0
-864 865 0
864 -866 0
-864 866 0
-769 -867 -864 0
-190 -868 -864 0
868 867 864 0
190 867 864 0
868 769 864 0
190 769 864 0
869 -867 0
-869 867 0
869 -870 0
-869 870 0
871 -540 0
-871 540 0
871 -537 0
-871 537 0
865 871 0
-865 -871 0
537 535 0
-872 -873 0
874 -875 0
-874 875 0
874 -876 0
-874 876 0
874 -872 0
-874 872 0
877 -878 0
-877 878 0
877 -879 0
-877 879 0
880 -881 0
-880 881 0
880 -882 0
-880 882 0
880 -883 0
-880 883 0
-157 -884 -880 0
-770 -879 -880 0
879 884 880 0
770 884 880 0
879 157 880 0
770 157 880 0
885 -886 0
-885 886 0
887 -888 0
-887 888 0
887 -889 0
-887 889 0
-103 -890 -885 0
-752 -888 -885 0
888 890 885 0
752 890 885 0
888 103 885 0
752 103 885 0
873 -891 0
-873 891 0
873 -892 0
-873 892 0
873 -893 0
-873 893 0
873 -819 0
-873 819 0
872 873 0
-748 745 0
-894 895 0
894 -896 0
897 894 0
-897 -894 0
-745 -743 0
-16 -896 -748 0
-774 -898 -748 0
898 896 748 0
774 896 748 0
898 16 748 0
774 16 748 0
894 -899 0
-894 899 0
894 -895 0
-894 896 0
900 -901 0
-900 901 0
900 -902 0
-900 902 0
900 -903 0
-900 903 0
900 -897 0
-900 897 0
904 -905 0
-904 905 0
904 -48 0
-904 48 0
904 -906 0
-904 906 0
-115 -907 -904 0
-789 -908 -904 0
908 907 904 0
789 907 904 0
908 115 904 0
789 115 904 0
909 -910 0
-909 910 0
909 -911 0
-909 911 0
912 -913 0
-912 913 0
-52 -49 0
52 -914 0
-48 -914 0
-914 912 0
914 -52 48 0
-912 914 49 0
915 -907 0
-915 907 0
915 -916 0
-915 916 0
915 -917 0
-915 917 0
918 915 0
-918 -915 0
919 -918 0
-919 918 0
919 -920 0
-919 920 0
854 -921 0
-854 921 0
854 -922 0
-854 922 0
854 -923 0
-854 923 0
-854 853 0
919 -924 0
-919 924 0
919 -925 0
-919 925 0
926 -927 0
-926 927 0
926 -928 0
-926 928 0
926 -849 0
-926 849 0
843 -928 -929 0
-92 -930 -926 0
-786 -911 -926 0
911 930 926 0
786 930 926 0
911 92 926 0
786 92 926 0
-840 -834 0
929 -931 0
-929 931 0
929 -840 0
-929 840 0
929 -932 0
-929 932 0
843 928 929 0
-843 -928 929 0
-843 928 -929 0
933 -934 0
-933 935 0
933 -936 0
937 -938 0
-937 938 0
937 -939 0
-937 939 0
-162 -940 -933 0
-811 -938 -933 0
938 940 933 0
811 940 933 0
938 162 933 0
811 162 933 0
941 942 0
-941 -942 0
943 -944 0
-943 944 0
943 -941 0
-943 941 0
943 -945 0
-943 945 0
943 -946 0
-943 946 0
945 947 0
948 -949 0
-948 949 0
948 -950 0
-948 950 0
948 -951 0
-948 951 0
-141 -952 -948 0
-773 -953 -948 0
953 952 948 0
773 952 948 0
953 141 948 0
773 141 948 0
954 -955 0
-954 955 0
954 -956 0
-954 956 0
954 -957 0
-954 957 0
954 -952 0
-954 952 0
958 954 0
-958 -954 0
-959 -960 0
961 -962 0
-961 962 0
961 -963 0
-961 963 0
961 -959 0
-961 959 0
-963 -964 0
960 959 -951 0
-197 -965 -961 0
797 965 961 0
966 197 961 0
797 197 961 0
967 -968 0
-967 968 0
967 -958 0
-967 958 0
967 -969 0
-967 969 0
970 -966 0
-970 966 0
970 -971 0
-970 971 0
-797 -966 -961 0
966 965 961 0
942 -972 0
-942 972 0
-933 934 0
933 -935 0
-933 936 0
973 944 974 0
-936 -972 -973 0
-975 -906 -973 0
-936 -906 -973 0
-936 -53 -973 0
-944 -964 -976 -974 0
53 906 972 973 0
977 -978 0
-977 978 0
977 -975 0
-96 -491 -977 0
-812 -979 -977 0
979 491 977 0
812 491 977 0
979 96 977 0
812 96 977 0
980 -981 0
982 -983 0
-982 983 0
982 -984 0
-982 984 0
985 982 0
-985 -982 0
-836 -986 0
-981 -986 0
986 836 987 981 0
982 -988 0
-982 988 0
982 -989 0
-982 989 0
990 -991 0
-990 991 0
990 -992 0
-990 992 0
990 -993 0
-990 993 0
990 -985 0
-990 985 0
994 995 0
-994 -995 0
996 -997 0
-996 997 0
996 -994 0
-996 994 0
-159 -998 -996 0
-785 -999 -996 0
999 998 996 0
785 998 996 0
999 159 996 0
785 159 996 0
1000 1001 0
-1000 -1001 0
1002 1003 0
-1002 -1003 0
1004 -1002 0
-1004 1002 0
1005 1006 0
-1005 -1006 0
-1001 -1003 -1007 0
1001 1008 1007 0
1003 995 1007 0
1001 995 1007 0
1003 1006 1007 0
1001 1006 1007 0
-1006 -995 -1008 -1007 0
1004 -1009 0
-1004 1009 0
1004 -1010 0
-1004 1010 0
-88 -1011 -1004 0
-807 -1012 -1004 0
1012 88 1004 0
807 88 1004 0
1013 -1014 0
-1013 1014 0
1013 -1015 0
-1013 1015 0
1013 -1011 0
-1013 1011 0
1016 1013 0
-1016 -1013 0
1012 1011 1004 0
807 1011 1004 0
1017 -1018 0
-1017 1018 0
1017 -1000 0
-1017 1000 0
1017 -1019 0
-1017 1019 0
-95 -1020 -1017 0
-771 -1021 -1017 0
1021 1020 1017 0
771 1020 1017 0
1021 95 1017 0
771 95 1017 0
1022 -1023 0
-1022 1023 0
1022 -1021 0
-1022 1021 0
-1018 -1024 0
1010 -1024 0
1018 -1025 0
-1010 -1025 0
-1024 1026 0
1024 1018 -1010 0
1025 -1018 1010 0
-1026 1025 1024 0
1027 -1028 0
-1027 1028 0
1027 -1029 0
-1027 1029 0
1027 -300 0
-1027 300 0
1030 1027 0
-1030 -1027 0
1031 -1032 0
-1031 1032 0
1031 -1030 0
-1031 1030 0
1033 -1034 0
-1033 1034 0
1033 -1035 0
-1033 1035 0
1033 -1036 0
-1033 1036 0
1033 -1016 0
-1033 1016 0
1031 -1037 0
-1031 1037 0
1031 -1038 0
-1031 1038 0
1039 -1040 0
-1039 1040 0
1039 -1005 0
-1039 1005 0
1039 -1041 0
-1039 1041 0
-165 -1042 -1039 0
-772 -1043 -1039 0
1043 1042 1039 0
772 1042 1039 0
1043 165 1039 0
772 165 1039 0
1044 -1045 0
-1044 1045 0
1044 -1043 0
-1044 1043 0
1046 -1047 0
-1046 1047 0
1046 -1048 0
-1046 1048 0
1046 -1049 0
-1046 1049 0
1046 -1050 0
-1046 1050 0
1051 -1052 0
-1051 1052 0
1051 -998 0
-1051 998 0
1053 -1054 0
-1053 1054 0
1053 -1055 0
-1053 1055 0
1053 -1056 0
-1053 1056 0
1050 1053 0
-1050 -1053 0
1051 -1057 0
-1051 1057 0
1058 1051 0
-1058 -1051 0
1059 -1060 0
-1059 1060 0
1059 -1061 0
-1059 1061 0
1059 -1062 0
-1059 1062 0
1059 -1058 0
-1059 1058 0
1063 -1064 0
-1063 1064 0
1063 -1065 0
-1063 1065 0
-1066 -1067 0
-1065 -1067 0
-153 -1068 -1063 0
-798 -1069 -1063 0
1069 1068 1063 0
798 1068 1063 0
798 153 1063 0
1067 1066 947 1065 0
-1070 -1071 0
1072 -1071 0
1070 -1073 0
1063 -1070 0
-1063 1070 0
1074 -1069 0
-1074 1069 0
1074 -1075 0
-1074 1075 0
1071 1070 -1072 0
1073 -1070 1072 0
1069 153 1063 0
1076 1077 0
-1076 -1077 0
1078 -1079 0
-1078 1079 0
1078 -1076 0
-1078 1076 0
-1072 -1073 0
-1073 1078 0
-1071 1078 0
-1078 1073 1071 0
1080 -1081 0
-1080 1081 0
1080 -1066 0
-1080 1066 0
1080 -1072 0
-1080 1072 0
-97 -1054 -1080 0
-768 -1082 -1080 0
1082 1054 1080 0
768 1054 1080 0
1082 97 1080 0
768 97 1080 0
-882 -1083 0
818 -1083 0
882 -1084 0
-818 -1084 0
-1084 1085 0
-1083 1085 0
1083 882 -818 0
1084 -882 818 0
-1085 1084 1083 0
1086 -1087 0
-1086 1087 0
1086 -841 0
-1086 841 0
1086 -1088 0
-1086 1088 0
1089 1086 0
-1089 -1086 0
1085 -1090 0
-1085 1090 0
1085 -1089 0
-1085 1089 0
-1091 1092 0
-932 -1091 0
-1088 -1091 0
1091 932 1093 1088 0
1094 1095 0
835 -1096 0
-835 1096 0
-1097 -1094 0
1097 1090 1094 0
1097 1098 1094 0
2 827 1097 0
-827 -1096 -1097 0
-2 -1096 -1097 0
-827 -817 -1097 0
-2 -817 -1097 0
-827 -881 -1097 0
-2 -881 -1097 0
881 817 1096 1097 0
1095 -1099 0
-1095 1099 0
1095 -1100 0
-1095 1100 0
1101 1095 0
832 1095 0
834 832 0
1102 832 0
1103 1102 0
-1103 -1102 0
-841 -834 0
1104 1101 0
1105 1101 0
-1095 -1101 -1094 -832 0
-832 -831 -834 -1102 0
-1101 -1106 -1104 -1105 0
838 -1107 0
-838 1107 0
-838 1108 0
-117 -989 -838 0
-821 -1109 -838 0
1109 989 838 0
821 989 838 0
1109 117 838 0
821 117 838 0
835 -1110 0
-835 1110 0
835 -1111 0
-835 1111 0
1111 1098 0
-1111 -1098 0
-1087 -1104 0
-931 -1104 0
-1110 -1104 0
828 3 835 0
-828 -3 835 0
828 -3 -835 0
1104 1087 931 1110 0
-845 -848 0
-849 -848 0
1106 1101 0
357 1106 0
-357 -1106 0
1097 848 1094 0
-1098 -848 -1090 -1094 0
1112 -1113 0
-1112 1113 0
1112 -1114 0
-1112 1114 0
1115 1112 0
-1115 -1112 0
-700 -711 0
700 -1116 0
-696 -1116 0
-1116 707 0
1116 -700 696 0
-707 1116 711 0
-1117 1118 0
-1117 1119 0
1120 -1121 0
-1120 1121 0
1120 -1122 0
-1120 1122 0
1123 -1124 0
-1040 -1125 0
1040 -1126 0
-1127 -1126 0
1124 1128 0
1122 1129 1117 0
1126 -1040 1127 0
-1123 1126 1125 0
1118 -1130 0
1117 -1118 0
1117 -1119 0
1117 -1131 0
-1117 1131 0
-164 -1129 -1117 0
-775 -1122 -1117 0
775 1129 1117 0
1122 164 1117 0
775 164 1117 0
1132 -712 0
-1132 712 0
1132 -1133 0
-1132 1133 0
-1130 1132 0
708 -1115 0
-708 1115 0
708 -1134 0
-708 1134 0
712 708 0
1026 -710 0
-1026 710 0
1026 -1135 0
-1026 1135 0
1026 -1008 0
-1026 1008 0
1026 -1136 0
-1026 1136 0
-1025 1026 0
1137 688 0
1133 688 0
1135 688 0
1003 1008 1007 0
-688 -1137 -1133 -1135 0
996 -1127 0
-996 1127 0
1123 -709 0
-1123 709 0
1123 -1137 0
-1123 1137 0
-1123 1124 0
1127 -1125 0
-1126 1123 0
-1125 1123 0
1125 1040 -1127 0
-1118 -1138 0
298 -1138 0
-298 -1130 0
-1138 1132 0
299 1128 0
1136 1128 0
1139 1128 0
1119 1139 0
-1119 -1139 0
1138 1118 -298 0
1130 -1118 298 0
-1132 1130 1138 0
-1128 -1124 -299 -1136 -1139 0
-1140 1141 0
1140 -1142 0
-1140 1142 0
1140 -1143 0
-1140 1143 0
1128 1140 0
1144 1140 0
1007 1140 0
687 1144 0
-687 -1144 0
-1140 -1128 -1144 -1007 0
1145 -1146 0
-1145 1146 0
1145 -1147 0
-1145 1147 0
1145 -1148 0
-1145 1148 0
-1141 -1145 0
1140 -1141 0
-1099 -1114 -1145 0
1141 1114 1145 0
1141 1099 1145 0
1149 -1150 0
-1149 1150 0
1149 -1151 0
-1149 1151 0
-154 -1149 0
1150 1152 1153 0
-1150 -1152 1153 0
-1150 1152 -1153 0
1150 -1152 -1153 0
154 1154 1149 0
154 822 1149 0
912 -1155 0
-912 1155 0
1156 -1157 0
-1156 1157 0
1156 -1158 0
-1156 1158 0
-1067 -1156 0
-1159 -1156 0
-1160 -1156 0
-1151 -1159 0
-1161 -1159 0
-947 -1067 0
1155 947 0
1162 947 0
-740 -1157 -1163 0
1156 1067 1159 1160 0
1159 1164 1151 1161 0
-947 -1155 -1162 -945 0
1165 -1166 0
-1165 1166 0
-1164 -1159 0
1079 1164 0
946 1164 0
1166 1164 0
913 1164 0
-1164 -1079 -946 -1166 -913 0
1167 -1152 0
-1167 1152 0
1167 -1161 0
-1167 1161 0
778 1167 0
1168 1167 0
1169 1168 0
-1169 -1168 0
885 -1169 0
-885 1169 0
-1167 -778 -1168 0
912 -976 0
-912 976 0
-49 912 0
-977 975 0
974 1160 0
-974 -1160 0
-973 -974 0
-950 -964 0
973 976 974 0
973 964 974 0
936 975 973 0
-975 -972 -973 0
-975 -53 -973 0
964 950 963 0
1170 -1171 0
-1170 1171 0
1170 -1172 0
-1170 1172 0
1173 1170 0
1174 1170 0
1175 1170 0
912 -1175 0
-912 1175 0
-1176 -1174 0
-1153 -1174 0
-1077 -1174 0
942 -1176 0
-942 1176 0
-1170 -1173 -1174 -1175 0
1174 1176 1153 1077 0
1165 -1173 0
-1165 1173 0
1165 -1162 0
-1165 1162 0
951 -960 0
959 -1177 0
-951 -1177 0
-1177 1165 0
-960 1165 0
1177 -959 951 0
-1165 1177 960 0
-935 -1178 0
1179 -1178 0
935 -1180 0
-1179 -1180 0
-1180 943 0
-1178 943 0
977 -1179 0
-977 1179 0
1178 935 -1179 0
1180 -935 1179 0
-943 1180 1178 0
1181 -1103 0
-1181 1103 0
1181 -1182 0
-1181 1182 0
1181 -1183 0
-1181 1183 0
-113 -1184 -1181 0
-795 -1185 -1181 0
1185 1184 1181 0
795 1184 1181 0
1185 113 1181 0
795 113 1181 0
1186 -1187 0
-1186 1187 0
1186 -1185 0
-1186 1185 0
838 -1108 0
986 1093 0
-986 -1093 0
-987 -986 0
1108 1182 987 0
-1108 -1182 987 0
-1108 1182 -987 0
1108 -1182 -987 0
1188 -1189 0
-1188 1189 0
-1188 1190 0
1191 -1192 0
-1191 1192 0
1191 -1193 0
-1191 1193 0
-173 -1194 -1188 0
-758 -1193 -1188 0
1193 1194 1188 0
758 1194 1188 0
1193 173 1188 0
758 173 1188 0
-839 -834 0
-980 981 0
980 -839 0
-980 839 0
356 -359 0
1188 -1195 0
-1188 1195 0
1188 -1190 0
1195 1105 0
-1195 -1105 0
359 1190 980 0
-359 -1190 980 0
-359 1190 -980 0
359 -1190 -980 0
1196 -1197 0
-1196 1197 0
1196 -1198 0
-1196 1198 0
1196 -1199 0
-1196 1199 0
1196 -257 0
-1196 257 0
-1200 -1196 0
1200 1196 0
1201 -1202 0
-1201 1202 0
1201 -1203 0
-1201 1203 0
1201 -1204 0
-1201 1204 0
1201 -1205 0
-1201 1205 0
1201 -1200 0
-1201 1200 0
1206 -1207 0
-1206 1207 0
1206 -1208 0
-1206 1208 0
1206 -1209 0
-1206 1209 0
1206 -1210 0
-1206 1210 0
1206 -482 0
-1206 482 0
1211 -1154 0
-1211 1154 0
1211 -1212 0
-1211 1212 0
-822 -1154 -1149 0
1213 -1214 0
-1213 1214 0
1213 -1215 0
-1213 1215 0
1213 -1216 0
-1213 1216 0
1213 -1217 0
-1213 1217 0
1213 -1218 0
-1213 1218 0
1213 -1219 0
-1213 1219 0
1220 1213 0
-1220 -1213 0
-1219 -1218 -1221 0
1222 -1223 0
-1222 1223 0
1222 -1224 0
-1222 1224 0
-1225 -1222 0
-1226 -1222 0
1227 -1226 0
-1227 1226 0
1227 -1228 0
-1227 1228 0
1222 1225 1226 0
1229 -1230 0
-1229 1230 0
1229 -1231 0
-1229 1231 0
1229 -1232 0
-1229 1232 0
1229 -1233 0
-1229 1233 0
1229 -1234 0
-1229 1234 0
-1229 1220 0
-1229 1235 0
1236 -1237 0
-1236 1237 0
1236 -1238 0
-1236 1238 0
1229 -1220 0
1229 -1235 0
-1229 1239 0
-1235 -1240 0
1235 -1241 0
-1238 -1224 -1221 0
1242 -1243 0
-1242 1243 0
1242 -1244 0
-1242 1244 0
-1239 -1245 0
1239 -1246 0
-1245 1247 0
1229 -1248 0
-1229 1248 0
1229 -1239 0
1245 1239 -1237 0
1246 -1239 1237 0
1249 -1250 0
-1249 1250 0
1249 -1225 0
-1249 1225 0
1249 -1251 0
-1249 1251 0
1252 1249 0
-1252 -1249 0
1253 -1252 0
-1253 1252 0
1253 -1254 0
-1253 1254 0
-1250 -1236 0
-1255 -1236 0
1256 -1255 0
-1256 1255 0
1256 -1257 0
-1256 1257 0
1236 1250 1255 0
1247 -1258 0
-1247 1258 0
1221 -1259 0
-1221 1259 0
1221 -1260 0
-1221 1260 0
1219 1238 1221 0
-1238 -1258 -1221 0
-1219 -1258 -1221 0
-1238 -1218 -1221 0
-1219 -1224 -1221 0
1224 1218 1258 1221 0
-1261 -1242 0
-1262 -1242 0
1247 -1262 0
-1247 1262 0
1223 -1240 0
-1223 -1241 0
-1241 1261 0
-1240 1261 0
1242 1261 1262 0
1240 1235 -1223 0
1241 -1235 1223 0
-1261 1241 1240 0
1263 0
-1264 -1265 0
1266 -1265 0
1264 -1267 0
-1266 -1267 0
-1267 1268 0
-1265 1268 0
-1268 1263 0
-1263 1268 0
1265 1264 -1266 0
1267 -1264 1266 0
-1268 1267 1265 0
-1269 1266 1264 0
-1269 -1266 -1264 0
1270 1266 0
-1271 -1272 0
1273 -1274 0
1274 1272 1266 0
-1270 -1272 -1266 0
-1275 -1272 -1276 0
-1271 -1274 1270 0
-1275 -1272 1270 0
-1275 1270 1277 0
-1278 -1270 -1277 0
-1278 1272 -1277 1276 0
-1278 1272 -1270 1274 0
1279 1277 0
1280 -1279 0
1237 -1245 0
-1237 -1246 0
-1246 1247 0
-1281 -1282 1279 0
-1283 -1284 1279 0
-1283 1285 1279 0
-1279 -1260 -1277 0
-1286 1285 1279 0
-1286 -1285 -1279 0
-1247 1246 1245 0
1287 -1271 0
1287 -1286 0
1280 -1276 0
-1288 1287 0
1289 -1290 0
-1289 1290 0
1289 -1272 0
-1289 1272 0
1259 1289 0
-1259 -1289 0
-1287 1273 1280 0
-1287 -1273 -1280 0
-1271 1269 0
-1278 1269 0
-1286 1278 0
-1273 1274 0
-1270 -1274 -1266 0
-1275 -1291 -1274 0
-1275 -1274 -1276 0
-1278 1270 1277 0
-1287 1271 1286 0
-1271 1274 1276 0
-1271 -1274 -1276 0
-1278 1272 1274 1276 0
1277 1264 0
-1281 -1260 0
-1283 -1244 0
-1280 1276 0
-1271 -1276 1277 0
-1275 -1291 1277 0
1276 1272 1264 0
-1277 -1272 -1264 0
-1277 -1276 -1264 0
-1281 -1244 1285 0
-1286 1244 1260 0
1244 1260 1277 0
1285 1270 0
1273 -1285 0
-1273 1285 0
-1271 1270 1277 0
1244 1260 1270 0
-1285 -1260 -1270 0
-1285 -1244 -1270 0
-1281 1285 1279 0
-1283 -1260 1285 0
-1279 -1244 -1277 0
-1288 -614 0
-448 -1292 0
-1293 -1292 0
-1294 -1292 0
-1295 -1296 -1297 0
-1295 -614 -1292 0
1292 614 1280 0
-1298 -1292 -1280 0
-1288 -1297 -1292 0
-1299 614 -1300 1292 0
-1299 614 1297 1292 0
1301 0
-1280 1279 0
-1288 1298 0
1298 1280 0
628 -1298 0
-628 1298 0
-447 1288 0
-447 -1294 0
-1301 447 0
-1301 -1302 0
-447 -1303 -1304 0
-1305 -1293 0
1306 -1305 0
-1306 1305 0
1306 -1307 0
-1306 1307 0
1306 -1308 0
-1306 1308 0
1306 -1309 0
-1306 1309 0
1310 1306 0
-1310 -1306 0
1298 1273 0
-1295 1298 0
-1303 -1297 0
1311 -1302 0
-1311 1312 0
1313 1311 0
1091 -1313 0
1297 614 1273 0
-1298 -614 -1273 0
-1298 -1297 -1273 0
-1298 -614 -1280 0
-1299 614 -1298 1297 0
-448 -1297 0
-1293 -1297 0
-1294 -1297 0
-1304 -1292 0
-1314 -1294 0
-1315 -1293 0
-1316 -1293 0
-1317 -1304 0
-1295 -1297 -1292 0
-1288 1297 1292 0
1297 448 1303 1293 1294 0
1292 448 1304 1293 1294 0
-1317 0
-1311 1302 0
-1318 -1303 0
-1302 -1303 0
-1301 -1318 0
-1318 -1304 0
-1302 -1304 0
1319 1318 0
-1319 -1318 0
-1163 1319 0
-447 1303 1304 0
1303 1320 1318 1302 0
1304 1317 1318 1302 0
1321 -1315 0
-1321 1315 0
1321 -1322 0
-1321 1322 0
1321 -1323 0
-1321 1323 0
1324 1321 0
-1324 -1321 0
-735 -1324 0
-1171 -1324 0
1324 735 1171 0
1163 -1319 0
1163 -1325 0
-1163 1325 0
1163 -1326 0
-1163 1326 0
740 1163 0
-739 740 0
1157 736 1163 0
-740 -736 -1163 0
1320 0
-447 -1293 0
1327 -1320 0
-1327 1320 0
1327 -1316 0
1327 -1328 0
-1327 1314 0
-1327 1329 0
-1312 -1293 0
-1320 -1303 0
1293 1305 1312 1315 1316 0
-1147 -1294 0
-1327 1316 0
-1327 1328 0
1327 -1314 0
1327 -1330 0
-1327 1330 0
1327 -1329 0
444 1327 0
510 1327 0
1294 1147 1314 0
-1327 -444 -510 0
1331 -1332 0
-1331 1332 0
1333 1331 0
-1333 -1331 0
1334 -1335 0
-1334 1335 0
1334 -1336 0
-1334 1336 0
1334 -1333 0
-1334 1333 0
1334 -1337 0
-1334 1337 0
1331 -546 0
-1331 546 0
1331 -1338 0
-1331 1338 0
1311 -1312 0
1311 -1339 0
-1311 1339 0
1113 1311 0
-1091 1313 0
1091 -1092 0
-1093 -1091 0
-1311 -1113 -1313 0
1340 -1341 0
-1340 1341 0
1340 -1342 0
-1340 1342 0
1340 -1343 0
-1340 1343 0
1340 -410 0
-1340 410 0
1344 1340 0
-1344 -1340 0
1345 -1344 0
-1345 1344 0
1346 -1347 0
-1346 1347 0
1346 -1348 0
-1346 1348 0
1346 -1349 0
-1346 1349 0
1346 -1350 0
-1346 1350 0
1345 -1351 0
-1345 1351 0
1345 -1352 0
-1345 1352 0
1353 -402 0
-1353 402 0
1354 1353 0
-1354 -1353 0
1355 -1356 0
-1355 1356 0
1355 -1357 0
-1355 1357 0
1355 -1358 0
-1355 1358 0
1355 -1354 0
-1355 1354 0
1353 -1359 0
-1353 1359 0
1353 -1360 0
-1353 1360 0
1361 -1362 0
-1361 1362 0
1361 -527 0
-1361 527 0
1361 -1363 0
-1361 1363 0
1349 1361 0
-1349 -1361 0
